/*********************************************
 * OPL 12.8.0.0 Data
 * Author: ardelain
 * Creation Date: 12 mars 2019 at 08:47:53
 *********************************************/
Products={"Door","Windows"};
Factories={"Factories 1","Factories 2","Factories 3"};
r=[3000,5000];
t=[[4,12,18][0,3,2]];
c=[4,12,18];